# pm6 opt

Title

0 1
O                  1.49350638    2.84992781    0.00000000
H                  2.45350638    2.84992781    0.00000000
H                  1.17305179    3.75486364    0.00000000

